NAME : random_15
COMMENT : 30 random nodes
TYPE : TSP
DIMENSION : 30
EDGE_WEIGHT_TYPE : EUC_2D
NODE_COORD_SECTION
1 534 914
2 498 130
3 249 702
4 999 599
5 872 687
6 793 234
7 193 516
8 270 300
9 982 819
10 162 460
11 692 152
12 987 129
13 711 774
14 478 241
15 407 125
16 555 1
17 805 416
18 89 113
19 782 984
20 608 544
21 429 339
22 498 886
23 47 277
24 116 611
25 557 620
26 13 316
27 931 101
28 691 85
29 581 489
30 252 926
EOF